c 
p cnf 10 40
6 9 8 0
1 2 8 0
5 -10 9 0
3 -9 -2 0
-1 -9 -10 0
5 -6 -10 0
1 -3 -2 0
7 3 -1 0
5 2 3 0
-10 -2 9 0
-7 6 1 0
-10 6 -1 0
1 -7 -5 0
-2 5 10 0
-3 -6 1 0
4 5 3 0
6 -1 2 0
-3 -1 -2 0
8 -4 3 0
8 4 -10 0
2 9 1 0
-7 9 -3 0
5 10 -2 0
-1 6 3 0
1 -7 10 0
-5 -10 -9 0
9 10 2 0
8 10 9 0
3 -5 7 0
5 3 -2 0
1 -6 -4 0
-6 -1 3 0
3 -4 -10 0
-3 -9 -4 0
2 6 -3 0
-7 2 5 0
9 -7 10 0
-10 5 3 0
10 3 8 0
6 4 -2 0
